NAME : CC70.2201660.tour
COMMENT : Cost = 0_2201660
COMMENT : Found by LKH [Keld Helsgaun] Sun Apr 23 15:14:36 2017
TYPE : TOUR
DIMENSION : 145
TOUR_SECTION
1
56
126
4
74
6
76
27
97
63
133
10
80
145
42
112
7
77
49
119
14
84
47
117
52
122
44
114
20
90
37
107
22
92
29
69
139
58
99
128
9
79
144
41
32
102
111
13
83
5
75
3
73
48
8
78
118
59
129
57
60
127
55
125
130
53
65
123
135
39
54
124
21
91
109
71
2
141
72
142
35
105
36
106
61
131
33
103
70
140
64
134
45
115
50
62
132
120
15
85
40
110
26
67
137
96
25
95
143
68
138
28
98
18
38
108
88
51
121
16
86
11
81
23
93
30
100
43
113
12
82
17
46
87
31
101
116
34
24
104
66
136
94
19
89
-1
EOF
